5 5
1 19 3 69 4 51 0 11 2 12
3 74 0 8 4 24 2 92 1 41
4 36 1 85 2 72 0 55 3 9
1 47 0 15 2 48 3 82 4 42
0 60 2 84 4 70 1 12 3 2
-1
0 2 3 5
0 4 5
0 3 4 5
0 1 3 4 5
0 2 5
-2
127 165 258
277 330
268 267 362
72 115 276 260
223 243

397 7
20 16 6 3 13
0 15 11 23 9
21 17 12 8 4
1 5 18 14 24
10 2 22 7 19
